
Gurobi 11.0.0 (linux64) logging started Mon Apr 15 08:51:58 2024

Set parameter LogFile to value "/lustre1/scratch/348/vsc34888/JointResearch/05.Models/06.Benchmarking/L.Cont_Investments_per_hour/RTS24_ByStages_nc50/openStarNet_RTS24_ByStages_nc50.log"
Set parameter Method to value 2
Set parameter MIPFocus to value 1
Set parameter Presolve to value 2
Set parameter RINS to value 100
Set parameter MIPGap to value 0.01
Set parameter Threads to value 36
Set parameter TimeLimit to value 259200
Set parameter IterationLimit to value 760000000
Gurobi Optimizer version 11.0.0 build v11.0.0rc2 (linux64 - "Rocky Linux 8.8 (Green Obsidian)")

CPU model: Intel(R) Xeon(R) Gold 6140 CPU @ 2.30GHz, instruction set [SSE2|AVX|AVX2|AVX512]
Thread count: 36 physical cores, 36 logical processors, using up to 36 threads

Optimize a model with 19453 rows, 11650 columns and 51909 nonzeros
Model fingerprint: 0x868a7f9b
Variable types: 11620 continuous, 30 integer (30 binary)
Coefficient statistics:
  Matrix range     [3e-02, 7e+02]
  Objective range  [1e+00, 1e+00]
  Bounds range     [2e-03, 3e+00]
  RHS range        [2e-03, 3e+00]
Presolve removed 10442 rows and 5486 columns
Presolve time: 0.10s
Presolved: 9011 rows, 6164 columns, 31745 nonzeros
Variable types: 6134 continuous, 30 integer (30 binary)
Found heuristic solution: objective 321.4034253
Root relaxation presolved: 9011 rows, 6164 columns, 31745 nonzeros

Root barrier log...

Ordering time: 0.00s

Barrier statistics:
 Dense cols : 30
 AA' NZ     : 6.667e+04
 Factor NZ  : 1.739e+05 (roughly 8 MB of memory)
 Factor Ops : 3.703e+06 (less than 1 second per iteration)
 Threads    : 36

                  Objective                Residual
Iter       Primal          Dual         Primal    Dual     Compl     Time
   0   7.82530730e+05 -4.72754040e+07  6.18e+00 1.83e+02  7.25e+03     0s
   1   1.26529068e+05 -1.34395503e+07  8.25e-01 1.03e-09  1.05e+03     0s
   2   4.44832046e+04 -2.06800147e+06  1.51e-01 2.53e-10  1.33e+02     0s
   3   1.74751414e+04 -2.70307289e+05  1.68e-13 2.72e-11  1.52e+01     0s
   4   4.09382262e+03 -2.99357424e+04  1.80e-13 4.09e-12  1.79e+00     0s
   5   7.16487754e+02 -4.66739900e+03  3.53e-13 9.09e-13  2.84e-01     0s
   6   5.19854451e+02 -1.54950492e+03  2.62e-13 1.82e-12  1.09e-01     0s
   7   3.96656268e+02 -4.28704207e+02  1.85e-13 9.09e-13  4.35e-02     0s
   8   3.16788991e+02  6.80694686e+00  1.95e-13 1.82e-12  1.63e-02     0s
   9   2.63189006e+02  1.10792139e+02  1.88e-13 9.09e-13  8.03e-03     0s
  10   2.36348460e+02  1.65515433e+02  3.22e-13 9.09e-13  3.73e-03     0s
  11   2.08069103e+02  1.76921180e+02  2.78e-12 1.82e-12  1.64e-03     0s
  12   1.98155141e+02  1.82407290e+02  2.56e-12 1.82e-12  8.30e-04     0s
  13   1.96040950e+02  1.83492190e+02  4.49e-12 1.82e-12  6.61e-04     0s
  14   1.92419411e+02  1.86436425e+02  1.02e-11 9.09e-13  3.15e-04     0s
  15   1.90619302e+02  1.87410446e+02  1.81e-11 9.09e-13  1.69e-04     0s
  16   1.89628375e+02  1.87983028e+02  1.12e-11 9.09e-13  8.67e-05     0s
  17   1.89323402e+02  1.88213225e+02  9.41e-12 9.09e-13  5.85e-05     0s
  18   1.89168048e+02  1.88362932e+02  5.45e-11 9.09e-13  4.24e-05     0s
  19   1.88864729e+02  1.88376595e+02  5.82e-11 1.82e-12  2.57e-05     0s
  20   1.88811426e+02  1.88432039e+02  4.53e-11 9.09e-13  2.00e-05     0s
  21   1.88615819e+02  1.88493815e+02  1.70e-10 1.82e-12  6.43e-06     0s
  22   1.88583190e+02  1.88517955e+02  1.00e-10 1.82e-12  3.44e-06     0s
  23   1.88570659e+02  1.88521327e+02  2.73e-10 9.09e-13  2.60e-06     0s
  24   1.88547537e+02  1.88525675e+02  6.96e-10 9.09e-13  1.15e-06     0s
  25   1.88535741e+02  1.88527084e+02  6.00e-10 9.09e-13  4.56e-07     0s
  26   1.88529840e+02  1.88527530e+02  1.91e-10 9.09e-13  1.22e-07     0s
  27   1.88527909e+02  1.88527654e+02  2.14e-11 9.09e-13  1.35e-08     0s
  28   1.88527678e+02  1.88527672e+02  1.22e-09 1.82e-12  3.00e-10     0s
  29   1.88527676e+02  1.88527675e+02  4.07e-11 1.82e-12  4.05e-13     0s

Barrier solved model in 29 iterations and 0.43 seconds (0.32 work units)
Optimal objective 1.88527676e+02


Root relaxation: objective 1.885277e+02, 1143 iterations, 0.31 seconds (0.15 work units)

    Nodes    |    Current Node    |     Objective Bounds      |     Work
 Expl Unexpl |  Obj  Depth IntInf | Incumbent    BestBd   Gap | It/Node Time

     0     0  188.52768    0   22  321.40343  188.52768  41.3%     -    0s
     0     0  191.10323    0   17  321.40343  191.10323  40.5%     -    0s
H    0     0                     309.1457670  191.10323  38.2%     -    1s
H    0     0                     279.9869012  191.10940  31.7%     -    1s
     0     0  191.13646    0   17  279.98690  191.13646  31.7%     -    1s
     0     0  191.79197    0   20  279.98690  191.79197  31.5%     -    1s
     0     0  191.79997    0   19  279.98690  191.79997  31.5%     -    1s
     0     0  191.80335    0   18  279.98690  191.80335  31.5%     -    1s
     0     0  191.80546    0   18  279.98690  191.80546  31.5%     -    1s
     0     0  191.80564    0   18  279.98690  191.80564  31.5%     -    1s
     0     0  192.09500    0   17  279.98690  192.09500  31.4%     -    1s
H    0     0                     263.1964818  192.09500  27.0%     -    2s
     0     0  192.18056    0   16  263.19648  192.18056  27.0%     -    2s
     0     0  192.28659    0   16  263.19648  192.28659  26.9%     -    2s
     0     0  192.76457    0   19  263.19648  192.76457  26.8%     -    2s
H    0     0                     258.5480453  192.76457  25.4%     -    2s
     0     0  192.76457    0   16  258.54805  192.76457  25.4%     -    2s
     0     0  192.76457    0   16  258.54805  192.76457  25.4%     -    2s
     0     0  192.76457    0   16  258.54805  192.76457  25.4%     -    2s
H    0     0                     254.8738405  193.86726  23.9%     -    3s
     0     0  193.86726    0   16  254.87384  193.86726  23.9%     -    3s
H    0     0                     216.6690724  193.86726  10.5%     -   13s
     0     2  193.86726    0   16  216.66907  193.86726  10.5%     -   13s
H   95   124                     216.6472629  195.26032  9.87%   361   27s
H  103   124                     216.6472628  195.26032  9.87%   353   27s
   896   414  201.61764    8   12  216.64726  197.48562  8.84%   210   38s
  1085   445     cutoff   12       216.64726  197.48562  8.84%   203   44s
  1157   446  208.28589   12   11  216.64726  197.48562  8.84%   202   45s
  1798   504  210.65316   12   11  216.64726  200.19959  7.59%   194   61s
H 1829   504                     216.6472623  200.19959  7.59%   195   61s
H 2954   587                     216.6472594  204.00827  5.83%   175   63s
  3986   648     cutoff   13       216.64726  206.81206  4.54%   162   65s
H 3995   648                     216.6472576  206.81206  4.54%   162   65s
H 4008   648                     216.6472559  206.81206  4.54%   162   65s
  4393   736  208.52965   14    9  216.64726  208.52965  3.75%   159   76s
H 4439   736                     216.6472519  208.57684  3.73%   158   76s
  4697   757  213.41617   16    7  216.64725  208.72609  3.66%   156   83s
H 4951   757                     216.6472467  208.72609  3.66%   154   83s
  5580   803     cutoff   18       216.64725  211.25361  2.49%   148   96s

Cutting planes:
  Gomory: 5
  Implied bound: 92
  MIR: 349
  Relax-and-lift: 20

Explored 9020 nodes (1119722 simplex iterations) in 99.18 seconds (110.69 work units)
Thread count was 36 (of 36 available processors)

Solution count 8: 216.647 216.669 254.874 ... 321.403

Optimal solution found (tolerance 1.00e-02)
Best objective 2.166472467245e+02, best bound 2.146648982974e+02, gap 0.9150%

Gurobi 11.0.0 (linux64) logging started Mon Apr 15 08:53:39 2024

Set parameter LogFile to value "/lustre1/scratch/348/vsc34888/JointResearch/05.Models/06.Benchmarking/L.Cont_Investments_per_hour/RTS24_ByStages_nc50/openStarNet_RTS24_ByStages_nc50.log"
Set parameter Method to value 2
Set parameter MIPFocus to value 1
Set parameter Presolve to value 2
Set parameter RINS to value 100
Set parameter MIPGap to value 0.01
Set parameter Threads to value 36
Set parameter TimeLimit to value 259200
Set parameter IterationLimit to value 760000000
Gurobi Optimizer version 11.0.0 build v11.0.0rc2 (linux64 - "Rocky Linux 8.8 (Green Obsidian)")

CPU model: Intel(R) Xeon(R) Gold 6140 CPU @ 2.30GHz, instruction set [SSE2|AVX|AVX2|AVX512]
Thread count: 36 physical cores, 36 logical processors, using up to 36 threads

Optimize a model with 19453 rows, 11620 columns and 45879 nonzeros
Model fingerprint: 0x2b5eb250
Coefficient statistics:
  Matrix range     [3e-02, 7e+02]
  Objective range  [1e+00, 1e+00]
  Bounds range     [2e-03, 3e+00]
  RHS range        [2e-03, 4e+01]
Presolve removed 16586 rows and 6736 columns
Presolve time: 0.02s
Presolved: 2867 rows, 4940 columns, 12633 nonzeros

Ordering time: 0.00s

Barrier statistics:
 AA' NZ     : 6.295e+03
 Factor NZ  : 2.298e+04 (roughly 2 MB of memory)
 Factor Ops : 3.092e+05 (less than 1 second per iteration)
 Threads    : 1

                  Objective                Residual
Iter       Primal          Dual         Primal    Dual     Compl     Time
   0   4.03802425e+06 -4.74707432e+07  1.47e+01 3.22e+03  8.44e+04     0s
   1   2.47240143e+05 -3.64325669e+07  8.49e-01 4.61e-11  8.59e+03     0s
   2   8.95590993e+04 -1.12603512e+07  2.57e-01 6.38e-11  2.04e+03     0s
   3   4.46902318e+04 -3.11636183e+06  6.74e-02 8.73e-11  4.72e+02     0s
   4   2.78282366e+04 -4.99439806e+05  1.50e-05 4.37e-11  6.73e+01     0s
   5   1.60345012e+04 -1.46071116e+05  3.18e-08 2.23e-11  2.07e+01     0s
   6   6.89609741e+03 -3.84574989e+04  6.23e-09 1.82e-11  5.79e+00     0s
   7   9.17449186e+02 -1.96497413e+03  2.14e-12 7.28e-12  3.68e-01     0s
   8   4.33653226e+02 -3.07203274e+02  2.01e-12 7.28e-12  9.45e-02     0s
   9   3.16588138e+02  1.06695342e+01  1.16e-12 1.46e-11  3.90e-02     0s
  10   2.62150698e+02  1.37609368e+02  1.14e-12 7.28e-12  1.59e-02     0s
  11   2.38358621e+02  1.85339462e+02  9.70e-13 1.46e-11  6.76e-03     0s
  12   2.24306171e+02  2.06728721e+02  1.09e-12 7.28e-12  2.24e-03     0s
  13   2.19518411e+02  2.14367017e+02  5.78e-12 1.46e-11  6.57e-04     0s
  14   2.16704875e+02  2.16417465e+02  1.12e-11 7.28e-12  3.67e-05     0s
  15   2.16649085e+02  2.16617464e+02  7.44e-12 7.28e-12  4.03e-06     0s
  16   2.16647456e+02  2.16644392e+02  2.27e-12 7.28e-12  3.91e-07     0s
  17   2.16647264e+02  2.16647261e+02  7.53e-12 7.28e-12  4.07e-10     0s
  18   2.16647263e+02  2.16647263e+02  3.17e-12 1.46e-11  5.78e-16     0s

Barrier solved model in 18 iterations and 0.06 seconds (0.05 work units)
Optimal objective 2.16647263e+02

Crossover log...

     593 DPushes remaining with DInf 0.0000000e+00                 0s
       0 DPushes remaining with DInf 0.0000000e+00                 0s

     140 PPushes remaining with PInf 0.0000000e+00                 0s
       0 PPushes remaining with PInf 0.0000000e+00                 0s

  Push phase complete: Pinf 0.0000000e+00, Dinf 2.9141287e-12      0s

Iteration    Objective       Primal Inf.    Dual Inf.      Time
     161    2.1664726e+02   0.000000e+00   0.000000e+00      0s

Use crossover to convert LP symmetric solution to basic solution...
Crossover log...

       0 DPushes remaining with DInf 0.0000000e+00                 0s

      78 PPushes remaining with PInf 0.0000000e+00                 0s
       0 PPushes remaining with PInf 0.0000000e+00                 0s

  Push phase complete: Pinf 0.0000000e+00, Dinf 9.5159818e-13      0s

Iteration    Objective       Primal Inf.    Dual Inf.      Time
     244    2.1664726e+02   0.000000e+00   0.000000e+00      0s

Solved in 244 iterations and 0.09 seconds (0.07 work units)
Optimal objective  2.166472629e+02
